FourierSAT_Github_AIJ/benchmarks/MAXSAT_benchmarks/crafted/3/bipartite/maxcut-140-630-0.7/maxcut-140-630-0.7-9.cnf
c strEdges: 189  randomEdges: 441 
c degrees:  2  3 
c girth: 10 max: 8.032766  
c Hgirth mixed MAXCUT instance
c generated from an undirected graph
c to solve unweighted MaxCut
p cnf 140 1260
68 125 0
-68 -125 0
68 139 0
-68 -139 0
34 45 0
-34 -45 0
34 50 0
-34 -50 0
127 83 0
-127 -83 0
127 45 0
-127 -45 0
127 59 0
-127 -59 0
93 36 0
-93 -36 0
93 12 0
-93 -12 0
5 65 0
-5 -65 0
5 46 0
-5 -46 0
5 31 0
-5 -31 0
17 81 0
-17 -81 0
17 32 0
-17 -32 0
17 122 0
-17 -122 0
57 37 0
-57 -37 0
57 104 0
-57 -104 0
57 128 0
-57 -128 0
73 6 0
-73 -6 0
73 85 0
-73 -85 0
51 56 0
-51 -56 0
51 13 0
-51 -13 0
51 79 0
-51 -79 0
38 85 0
-38 -85 0
38 54 0
-38 -54 0
25 86 0
-25 -86 0
25 40 0
-25 -40 0
25 123 0
-25 -123 0
90 104 0
-90 -104 0
90 86 0
-90 -86 0
2 21 0
-2 -21 0
2 83 0
-2 -83 0
2 56 0
-2 -56 0
29 79 0
-29 -79 0
29 35 0
-29 -35 0
29 108 0
-29 -108 0
89 19 0
-89 -19 0
89 69 0
-89 -69 0
89 72 0
-89 -72 0
1 97 0
-1 -97 0
1 63 0
-1 -63 0
94 132 0
-94 -132 0
94 62 0
-94 -62 0
94 18 0
-94 -18 0
121 95 0
-121 -95 0
121 102 0
-121 -102 0
110 135 0
-110 -135 0
110 26 0
-110 -26 0
110 81 0
-110 -81 0
91 119 0
-91 -119 0
91 140 0
-91 -140 0
91 129 0
-91 -129 0
52 114 0
-52 -114 0
52 43 0
-52 -43 0
52 48 0
-52 -48 0
76 63 0
-76 -63 0
76 103 0
-76 -103 0
76 46 0
-76 -46 0
7 43 0
-7 -43 0
7 45 0
-7 -45 0
98 12 0
-98 -12 0
98 119 0
-98 -119 0
98 134 0
-98 -134 0
74 32 0
-74 -32 0
74 132 0
-74 -132 0
74 129 0
-74 -129 0
80 122 0
-80 -122 0
80 44 0
-80 -44 0
3 54 0
-3 -54 0
3 37 0
-3 -37 0
3 20 0
-3 -20 0
84 46 0
-84 -46 0
84 126 0
-84 -126 0
84 14 0
-84 -14 0
67 48 0
-67 -48 0
67 104 0
-67 -104 0
67 56 0
-67 -56 0
116 14 0
-116 -14 0
116 108 0
-116 -108 0
116 6 0
-116 -6 0
113 134 0
-113 -134 0
113 13 0
-113 -13 0
107 40 0
-107 -40 0
107 39 0
-107 -39 0
10 47 0
-10 -47 0
10 12 0
-10 -12 0
10 85 0
-10 -85 0
41 126 0
-41 -126 0
41 75 0
-41 -75 0
41 72 0
-41 -72 0
130 87 0
-130 -87 0
130 43 0
-130 -43 0
42 26 0
-42 -26 0
42 39 0
-42 -39 0
42 140 0
-42 -140 0
137 35 0
-137 -35 0
137 55 0
-137 -55 0
137 97 0
-137 -97 0
15 75 0
-15 -75 0
15 131 0
-15 -131 0
15 139 0
-15 -139 0
33 102 0
-33 -102 0
33 32 0
-33 -32 0
33 79 0
-33 -79 0
136 140 0
-136 -140 0
136 19 0
-136 -19 0
136 55 0
-136 -55 0
77 124 0
-77 -124 0
77 111 0
-77 -111 0
24 62 0
-24 -62 0
24 86 0
-24 -86 0
24 124 0
-24 -124 0
9 103 0
-9 -103 0
9 123 0
-9 -123 0
9 122 0
-9 -122 0
70 128 0
-70 -128 0
70 4 0
-70 -4 0
70 102 0
-70 -102 0
71 4 0
-71 -4 0
71 47 0
-71 -47 0
71 22 0
-71 -22 0
120 111 0
-120 -111 0
120 65 0
-120 -65 0
120 21 0
-120 -21 0
61 8 0
-61 -8 0
61 125 0
-61 -125 0
61 124 0
-61 -124 0
99 139 0
-99 -139 0
99 54 0
-99 -54 0
99 135 0
-99 -135 0
92 59 0
-92 -59 0
92 103 0
-92 -103 0
92 4 0
-92 -4 0
115 53 0
-115 -53 0
115 87 0
-115 -87 0
115 36 0
-115 -36 0
66 23 0
-66 -23 0
66 118 0
-66 -118 0
88 118 0
-88 -118 0
88 37 0
-88 -37 0
82 39 0
-82 -39 0
82 31 0
-82 -31 0
138 55 0
-138 -55 0
138 118 0
-138 -118 0
112 108 0
-112 -108 0
112 50 0
-112 -50 0
109 129 0
-109 -129 0
109 59 0
-109 -59 0
109 125 0
-109 -125 0
30 123 0
-30 -123 0
30 117 0
-30 -117 0
30 131 0
-30 -131 0
100 131 0
-100 -131 0
100 36 0
-100 -36 0
100 35 0
-100 -35 0
11 20 0
-11 -20 0
11 95 0
-11 -95 0
101 18 0
-101 -18 0
101 63 0
-101 -63 0
101 20 0
-101 -20 0
49 27 0
-49 -27 0
49 95 0
-49 -95 0
49 21 0
-49 -21 0
58 50 0
-58 -50 0
58 40 0
-58 -40 0
58 22 0
-58 -22 0
105 117 0
-105 -117 0
105 23 0
-105 -23 0
105 134 0
-105 -134 0
96 22 0
-96 -22 0
96 64 0
-96 -64 0
96 97 0
-96 -97 0
106 72 0
-106 -72 0
106 114 0
-106 -114 0
106 132 0
-106 -132 0
28 13 0
-28 -13 0
28 8 0
-28 -8 0
16 44 0
-16 -44 0
16 53 0
-16 -53 0
16 8 0
-16 -8 0
78 31 0
-78 -31 0
78 128 0
-78 -128 0
78 87 0
-78 -87 0
133 69 0
-133 -69 0
133 44 0
-133 -44 0
133 27 0
-133 -27 0
60 64 0
-60 -64 0
60 23 0
-60 -23 0
60 111 0
-60 -111 0
52 36 0
-52 -36 0
77 24 0
-77 -24 0
86 27 0
-86 -27 0
65 44 0
-65 -44 0
42 134 0
-42 -134 0
116 99 0
-116 -99 0
110 120 0
-110 -120 0
12 129 0
-12 -129 0
6 23 0
-6 -23 0
16 97 0
-16 -97 0
25 35 0
-25 -35 0
127 38 0
-127 -38 0
16 111 0
-16 -111 0
37 103 0
-37 -103 0
3 72 0
-3 -72 0
25 121 0
-25 -121 0
74 27 0
-74 -27 0
10 49 0
-10 -49 0
78 36 0
-78 -36 0
37 47 0
-37 -47 0
116 69 0
-116 -69 0
140 124 0
-140 -124 0
35 69 0
-35 -69 0
42 66 0
-42 -66 0
87 75 0
-87 -75 0
110 30 0
-110 -30 0
63 122 0
-63 -122 0
4 20 0
-4 -20 0
93 2 0
-93 -2 0
91 50 0
-91 -50 0
102 27 0
-102 -27 0
36 69 0
-36 -69 0
36 81 0
-36 -81 0
51 28 0
-51 -28 0
25 124 0
-25 -124 0
92 12 0
-92 -12 0
82 104 0
-82 -104 0
41 37 0
-41 -37 0
47 18 0
-47 -18 0
102 103 0
-102 -103 0
58 125 0
-58 -125 0
46 31 0
-46 -31 0
107 138 0
-107 -138 0
7 112 0
-7 -112 0
87 108 0
-87 -108 0
41 56 0
-41 -56 0
130 101 0
-130 -101 0
93 11 0
-93 -11 0
17 84 0
-17 -84 0
9 120 0
-9 -120 0
138 43 0
-138 -43 0
107 87 0
-107 -87 0
121 42 0
-121 -42 0
92 66 0
-92 -66 0
51 136 0
-51 -136 0
137 50 0
-137 -50 0
133 36 0
-133 -36 0
86 48 0
-86 -48 0
115 22 0
-115 -22 0
138 109 0
-138 -109 0
66 101 0
-66 -101 0
88 40 0
-88 -40 0
42 111 0
-42 -111 0
74 131 0
-74 -131 0
76 54 0
-76 -54 0
114 23 0
-114 -23 0
109 126 0
-109 -126 0
100 128 0
-100 -128 0
85 12 0
-85 -12 0
57 71 0
-57 -71 0
19 140 0
-19 -140 0
120 6 0
-120 -6 0
51 60 0
-51 -60 0
125 114 0
-125 -114 0
97 22 0
-97 -22 0
57 23 0
-57 -23 0
43 44 0
-43 -44 0
21 87 0
-21 -87 0
109 114 0
-109 -114 0
6 40 0
-6 -40 0
41 138 0
-41 -138 0
21 63 0
-21 -63 0
34 78 0
-34 -78 0
106 135 0
-106 -135 0
33 105 0
-33 -105 0
32 124 0
-32 -124 0
32 46 0
-32 -46 0
28 32 0
-28 -32 0
93 20 0
-93 -20 0
86 22 0
-86 -22 0
130 104 0
-130 -104 0
101 19 0
-101 -19 0
127 97 0
-127 -97 0
77 49 0
-77 -49 0
23 129 0
-23 -129 0
136 4 0
-136 -4 0
130 114 0
-130 -114 0
101 69 0
-101 -69 0
21 140 0
-21 -140 0
34 96 0
-34 -96 0
90 105 0
-90 -105 0
46 53 0
-46 -53 0
45 47 0
-45 -47 0
43 134 0
-43 -134 0
3 131 0
-3 -131 0
99 8 0
-99 -8 0
51 115 0
-51 -115 0
17 120 0
-17 -120 0
122 131 0
-122 -131 0
106 45 0
-106 -45 0
97 35 0
-97 -35 0
92 88 0
-92 -88 0
4 53 0
-4 -53 0
75 59 0
-75 -59 0
52 59 0
-52 -59 0
36 129 0
-36 -129 0
68 73 0
-68 -73 0
25 47 0
-25 -47 0
51 128 0
-51 -128 0
28 4 0
-28 -4 0
20 64 0
-20 -64 0
34 19 0
-34 -19 0
13 69 0
-13 -69 0
110 109 0
-110 -109 0
91 12 0
-91 -12 0
90 29 0
-90 -29 0
78 18 0
-78 -18 0
24 87 0
-24 -87 0
30 85 0
-30 -85 0
95 87 0
-95 -87 0
88 59 0
-88 -59 0
24 105 0
-24 -105 0
78 35 0
-78 -35 0
93 137 0
-93 -137 0
52 71 0
-52 -71 0
89 77 0
-89 -77 0
1 13 0
-1 -13 0
81 85 0
-81 -85 0
122 54 0
-122 -54 0
38 123 0
-38 -123 0
89 113 0
-89 -113 0
58 139 0
-58 -139 0
138 95 0
-138 -95 0
19 54 0
-19 -54 0
131 13 0
-131 -13 0
113 54 0
-113 -54 0
138 46 0
-138 -46 0
67 130 0
-67 -130 0
9 95 0
-9 -95 0
66 44 0
-66 -44 0
119 18 0
-119 -18 0
93 102 0
-93 -102 0
98 40 0
-98 -40 0
70 140 0
-70 -140 0
90 131 0
-90 -131 0
130 109 0
-130 -109 0
52 4 0
-52 -4 0
85 40 0
-85 -40 0
104 43 0
-104 -43 0
7 53 0
-7 -53 0
6 59 0
-6 -59 0
107 14 0
-107 -14 0
136 45 0
-136 -45 0
29 121 0
-29 -121 0
100 119 0
-100 -119 0
7 39 0
-7 -39 0
38 36 0
-38 -36 0
42 30 0
-42 -30 0
24 54 0
-24 -54 0
2 118 0
-2 -118 0
42 99 0
-42 -99 0
109 58 0
-109 -58 0
11 114 0
-11 -114 0
84 42 0
-84 -42 0
116 66 0
-116 -66 0
34 59 0
-34 -59 0
137 106 0
-137 -106 0
17 60 0
-17 -60 0
78 131 0
-78 -131 0
123 20 0
-123 -20 0
75 4 0
-75 -4 0
49 134 0
-49 -134 0
21 26 0
-21 -26 0
24 82 0
-24 -82 0
89 87 0
-89 -87 0
76 79 0
-76 -79 0
12 26 0
-12 -26 0
71 19 0
-71 -19 0
43 72 0
-43 -72 0
93 35 0
-93 -35 0
116 40 0
-116 -40 0
51 114 0
-51 -114 0
99 45 0
-99 -45 0
17 75 0
-17 -75 0
73 26 0
-73 -26 0
42 61 0
-42 -61 0
101 14 0
-101 -14 0
135 114 0
-135 -114 0
2 14 0
-2 -14 0
3 11 0
-3 -11 0
92 20 0
-92 -20 0
41 117 0
-41 -117 0
91 15 0
-91 -15 0
6 85 0
-6 -85 0
93 29 0
-93 -29 0
21 46 0
-21 -46 0
6 134 0
-6 -134 0
30 108 0
-30 -108 0
90 128 0
-90 -128 0
106 27 0
-106 -27 0
2 50 0
-2 -50 0
57 133 0
-57 -133 0
65 56 0
-65 -56 0
90 16 0
-90 -16 0
48 20 0
-48 -20 0
87 18 0
-87 -18 0
79 35 0
-79 -35 0
99 85 0
-99 -85 0
91 46 0
-91 -46 0
67 10 0
-67 -10 0
130 30 0
-130 -30 0
2 110 0
-2 -110 0
71 30 0
-71 -30 0
97 95 0
-97 -95 0
113 119 0
-113 -119 0
90 103 0
-90 -103 0
74 15 0
-74 -15 0
54 27 0
-54 -27 0
80 4 0
-80 -4 0
38 31 0
-38 -31 0
49 123 0
-49 -123 0
133 72 0
-133 -72 0
99 138 0
-99 -138 0
76 132 0
-76 -132 0
24 119 0
-24 -119 0
2 67 0
-2 -67 0
71 64 0
-71 -64 0
1 79 0
-1 -79 0
73 77 0
-73 -77 0
38 16 0
-38 -16 0
57 51 0
-57 -51 0
95 14 0
-95 -14 0
112 28 0
-112 -28 0
136 69 0
-136 -69 0
100 23 0
-100 -23 0
96 16 0
-96 -16 0
74 58 0
-74 -58 0
84 45 0
-84 -45 0
89 117 0
-89 -117 0
74 113 0
-74 -113 0
37 72 0
-37 -72 0
98 84 0
-98 -84 0
134 31 0
-134 -31 0
73 3 0
-73 -3 0
94 131 0
-94 -131 0
37 64 0
-37 -64 0
80 92 0
-80 -92 0
99 132 0
-99 -132 0
3 107 0
-3 -107 0
38 18 0
-38 -18 0
112 103 0
-112 -103 0
70 83 0
-70 -83 0
109 111 0
-109 -111 0
91 131 0
-91 -131 0
125 124 0
-125 -124 0
106 75 0
-106 -75 0
93 45 0
-93 -45 0
16 54 0
-16 -54 0
34 29 0
-34 -29 0
40 27 0
-40 -27 0
37 18 0
-37 -18 0
60 103 0
-60 -103 0
115 56 0
-115 -56 0
137 21 0
-137 -21 0
15 36 0
-15 -36 0
5 24 0
-5 -24 0
82 100 0
-82 -100 0
115 40 0
-115 -40 0
87 124 0
-87 -124 0
102 50 0
-102 -50 0
16 134 0
-16 -134 0
17 21 0
-17 -21 0
17 113 0
-17 -113 0
122 23 0
-122 -23 0
73 125 0
-73 -125 0
85 35 0
-85 -35 0
71 55 0
-71 -55 0
14 139 0
-14 -139 0
99 4 0
-99 -4 0
14 126 0
-14 -126 0
93 71 0
-93 -71 0
137 101 0
-137 -101 0
115 82 0
-115 -82 0
21 118 0
-21 -118 0
42 60 0
-42 -60 0
104 139 0
-104 -139 0
92 11 0
-92 -11 0
112 8 0
-112 -8 0
136 117 0
-136 -117 0
29 75 0
-29 -75 0
86 23 0
-86 -23 0
73 104 0
-73 -104 0
1 42 0
-1 -42 0
60 6 0
-60 -6 0
90 37 0
-90 -37 0
2 16 0
-2 -16 0
28 55 0
-28 -55 0
80 123 0
-80 -123 0
100 62 0
-100 -62 0
39 13 0
-39 -13 0
92 112 0
-92 -112 0
62 13 0
-62 -13 0
35 59 0
-35 -59 0
88 133 0
-88 -133 0
74 14 0
-74 -14 0
140 118 0
-140 -118 0
121 32 0
-121 -32 0
122 134 0
-122 -134 0
121 115 0
-121 -115 0
29 78 0
-29 -78 0
37 85 0
-37 -85 0
119 44 0
-119 -44 0
77 19 0
-77 -19 0
80 21 0
-80 -21 0
101 6 0
-101 -6 0
54 18 0
-54 -18 0
98 125 0
-98 -125 0
5 4 0
-5 -4 0
138 60 0
-138 -60 0
58 31 0
-58 -31 0
33 13 0
-33 -13 0
22 13 0
-22 -13 0
78 104 0
-78 -104 0
92 139 0
-92 -139 0
49 19 0
-49 -19 0
9 61 0
-9 -61 0
38 100 0
-38 -100 0
49 103 0
-49 -103 0
3 103 0
-3 -103 0
42 87 0
-42 -87 0
113 21 0
-113 -21 0
91 35 0
-91 -35 0
76 136 0
-76 -136 0
10 97 0
-10 -97 0
51 39 0
-51 -39 0
68 52 0
-68 -52 0
32 48 0
-32 -48 0
17 52 0
-17 -52 0
137 20 0
-137 -20 0
81 102 0
-81 -102 0
121 119 0
-121 -119 0
79 50 0
-79 -50 0
108 13 0
-108 -13 0
53 44 0
-53 -44 0
56 87 0
-56 -87 0
48 35 0
-48 -35 0
65 20 0
-65 -20 0
110 63 0
-110 -63 0
76 123 0
-76 -123 0
77 37 0
-77 -37 0
61 27 0
-61 -27 0
33 132 0
-33 -132 0
113 39 0
-113 -39 0
7 22 0
-7 -22 0
120 114 0
-120 -114 0
96 6 0
-96 -6 0
138 140 0
-138 -140 0
96 102 0
-96 -102 0
32 27 0
-32 -27 0
40 75 0
-40 -75 0
130 11 0
-130 -11 0
32 111 0
-32 -111 0
23 72 0
-23 -72 0
34 60 0
-34 -60 0
121 14 0
-121 -14 0
110 105 0
-110 -105 0
6 140 0
-6 -140 0
68 35 0
-68 -35 0
98 67 0
-98 -67 0
109 119 0
-109 -119 0
30 4 0
-30 -4 0
116 35 0
-116 -35 0
89 115 0
-89 -115 0
3 13 0
-3 -13 0
122 46 0
-122 -46 0
96 23 0
-96 -23 0
138 86 0
-138 -86 0
9 50 0
-9 -50 0
28 54 0
-28 -54 0
130 96 0
-130 -96 0
81 63 0
-81 -63 0
15 61 0
-15 -61 0
67 15 0
-67 -15 0
1 59 0
-1 -59 0
29 31 0
-29 -31 0
135 48 0
-135 -48 0
89 63 0
-89 -63 0
80 125 0
-80 -125 0
76 64 0
-76 -64 0
60 59 0
-60 -59 0
138 122 0
-138 -122 0
84 139 0
-84 -139 0
74 96 0
-74 -96 0
32 129 0
-32 -129 0
33 62 0
-33 -62 0
5 81 0
-5 -81 0
57 33 0
-57 -33 0
126 55 0
-126 -55 0
106 16 0
-106 -16 0
27 13 0
-27 -13 0
136 48 0
-136 -48 0
91 124 0
-91 -124 0
107 42 0
-107 -42 0
135 40 0
-135 -40 0
45 55 0
-45 -55 0
52 100 0
-52 -100 0
134 55 0
-134 -55 0
45 117 0
-45 -117 0
91 115 0
-91 -115 0
30 65 0
-30 -65 0
86 50 0
-86 -50 0
86 128 0
-86 -128 0
116 100 0
-116 -100 0
136 85 0
-136 -85 0
68 36 0
-68 -36 0
14 18 0
-14 -18 0
83 65 0
-83 -65 0
2 122 0
-2 -122 0
94 30 0
-94 -30 0
17 27 0
-17 -27 0
78 43 0
-78 -43 0
57 85 0
-57 -85 0
68 7 0
-68 -7 0
30 11 0
-30 -11 0
107 95 0
-107 -95 0
93 136 0
-93 -136 0
106 108 0
-106 -108 0
107 81 0
-107 -81 0
88 31 0
-88 -31 0
52 19 0
-52 -19 0
80 97 0
-80 -97 0
