FourierSAT_Github_AIJ/res/fs_1core/maxcut-140-630-0.7-9.cnf.txt
o 196
o 182
